dates = {'2021-12-26','2021-12-27','2021-12-28','2021-12-29','2021-12-30','2021-12-31','2022-01-01','2022-01-02','2022-01-03','2022-01-04','2022-01-05','2022-01-06','2022-01-07','2022-01-08','2022-01-09','2022-01-10','2022-01-11','2022-01-12','2022-01-13','2022-01-14','2022-01-15','2022-01-16','2022-01-17','2022-01-18','2022-01-19'};

daysOfWeek = [Sunday,Monday,Tuesday,Wednesday,Thursday,Friday,Saturday,Sunday,Monday,Tuesday,Wednesday,Thursday,Friday,Saturday,Sunday,Monday,Tuesday,Wednesday,Thursday,Friday,Saturday,Sunday,Monday,Tuesday,Wednesday];

winter = false;

% For this week, how many people will be here.
numPeople = [152,152,161,161,164,164,164,164,164,164,164,164,164,165,165,154,154,162
,162,162,162,162,162,162,162];

% Physical workers need 50 to 100 % more nutrients per day.
numPhysicalWorkers = [55.0,55.0,58.5,58.5,58.5,58.5,58.5,58.5,58.5,58.5,58.5,58.5,58.5,58.5
,58.5,58.5,54.0,56.5,56.5,56.5,56.5,56.5,56.5,56.5,56.5];

% Males need +25% more nutrients per day.
numMen = [127,127,136,135,137,137,137,137,137,137,137,137,137,138,138,138,131,136
,136,136,136,136,136,136,136];

% Num people who do not eat categories. contains = {none, meat, milk, gluten, egg, nut, seed, sugars}
numRefusals = [| 0,0,3,0,4,0,7,9 | 0,0,3,0,4,0,7,9 | 0,0,6,1,3,0,0,6 | 0,0,6,1,3,0,0,6 | 0,0,0,0,0,1,10,0 | 0,0,0,0,0,1,10,0 | 0,0,0,0,0,1,10,0 | 0,0,0,0,0,1,10,0 | 0,0,0,0,0,1,10,0 | 0,0,0,0,0,1,10,0 | 0,0,0,0,0,1,10,0 | 0,0,0,0,0,1,10,0 | 0,0,0,0,0,1,10,0 | 0,8,0,0,13,10,6,2 | 0,8,0,0,13,10,6,2 | 0,0,3,2,0,0,0,13 | 0,0,3,2,0,0,0,13 | 0,2,7,0,0,3,0,9 | 0,2,7,0,0,3,0,9 | 0,2,7,0,0,3,0,9 | 0,2,7,0,0,3,0,9 | 0,2,7,0,0,3,0,9 | 0,2,7,0,0,3,0,9 | 0,2,7,0,0,3,0,9 | 0,2,7,0,0,3,0,9 |];

